c File:  mulsol.i.1.col
c
c SOURCE: Gary Lewandowski (gary@cs.wisc.edu)
c
c DESCRIPTION: Coloring problem generated from a register allocation
c              problem based on real code.
c
c graph #1 from register allocation file mulsol.i
p edge 197 3925
e 2 1
e 3 1
e 3 2
e 4 1
e 4 2
e 4 3
e 5 1
e 5 2
e 5 3
e 5 4
e 6 1
e 6 2
e 6 3
e 6 4
e 6 5
e 7 1
e 7 2
e 7 3
e 7 4
e 7 5
e 7 6
e 8 1
e 8 2
e 8 3
e 8 4
e 8 5
e 8 6
e 8 7
e 9 1
e 9 2
e 9 3
e 9 4
e 9 5
e 9 6
e 9 7
e 9 8
e 10 1
e 10 2
e 10 3
e 10 4
e 10 5
e 10 6
e 10 7
e 10 8
e 10 9
e 11 1
e 11 2
e 11 3
e 11 4
e 11 5
e 11 6
e 11 7
e 11 8
e 11 9
e 11 10
e 12 1
e 12 2
e 12 3
e 12 4
e 12 5
e 12 6
e 12 7
e 12 8
e 12 9
e 12 10
e 12 11
e 13 1
e 13 2
e 13 3
e 13 4
e 13 5
e 13 6
e 13 7
e 13 8
e 13 9
e 13 10
e 13 11
e 13 12
e 14 1
e 14 2
e 14 3
e 14 4
e 14 5
e 14 6
e 14 7
e 14 8
e 14 9
e 14 10
e 14 11
e 14 12
e 14 13
e 15 1
e 15 2
e 15 3
e 15 4
e 15 5
e 15 6
e 15 7
e 15 8
e 15 9
e 15 10
e 15 11
e 15 12
e 15 13
e 15 14
e 16 1
e 16 2
e 16 3
e 16 4
e 16 5
e 16 6
e 16 7
e 16 8
e 16 9
e 16 10
e 16 11
e 16 12
e 16 13
e 16 14
e 16 15
e 18 17
e 19 17
e 19 18
e 20 17
e 20 18
e 20 19
e 21 17
e 21 18
e 21 19
e 21 20
e 22 17
e 22 18
e 22 19
e 22 20
e 22 21
e 23 17
e 23 18
e 23 19
e 23 20
e 23 21
e 23 22
e 24 17
e 24 18
e 24 19
e 24 20
e 24 21
e 24 22
e 24 23
e 25 17
e 25 18
e 25 19
e 25 20
e 25 21
e 25 22
e 25 23
e 25 24
e 26 17
e 26 18
e 26 19
e 26 20
e 26 21
e 26 22
e 26 23
e 26 24
e 26 25
e 27 17
e 27 18
e 27 19
e 27 20
e 27 21
e 27 22
e 27 23
e 27 24
e 27 25
e 27 26
e 28 17
e 28 18
e 28 19
e 28 20
e 28 21
e 28 22
e 28 23
e 28 24
e 28 25
e 28 26
e 28 27
e 29 17
e 29 18
e 29 19
e 29 20
e 29 21
e 29 22
e 29 23
e 29 24
e 29 25
e 29 26
e 29 27
e 29 28
e 30 17
e 30 18
e 30 19
e 30 20
e 30 21
e 30 22
e 30 23
e 30 24
e 30 25
e 30 26
e 30 27
e 30 28
e 30 29
e 31 17
e 31 18
e 31 19
e 31 20
e 31 21
e 31 22
e 31 23
e 31 24
e 31 25
e 31 26
e 31 27
e 31 28
e 31 29
e 31 30
e 32 17
e 32 18
e 32 19
e 32 20
e 32 21
e 32 22
e 32 23
e 32 24
e 32 25
e 32 26
e 32 27
e 32 28
e 32 29
e 32 30
e 32 31
e 33 1
e 33 2
e 33 17
e 33 18
e 33 19
e 33 20
e 33 21
e 33 22
e 33 23
e 33 24
e 33 25
e 33 26
e 33 27
e 33 28
e 33 29
e 33 30
e 33 31
e 33 32
e 34 1
e 34 2
e 34 3
e 34 4
e 34 5
e 34 6
e 34 7
e 34 8
e 34 9
e 34 10
e 34 11
e 34 12
e 34 13
e 34 14
e 34 15
e 34 16
e 34 17
e 35 1
e 35 2
e 35 17
e 35 18
e 35 19
e 35 20
e 35 21
e 35 22
e 35 23
e 35 24
e 35 25
e 35 26
e 35 27
e 35 28
e 35 29
e 35 30
e 35 31
e 35 32
e 35 33
e 36 1
e 36 2
e 36 17
e 36 18
e 36 19
e 36 20
e 36 21
e 36 22
e 36 23
e 36 24
e 36 25
e 36 26
e 36 27
e 36 28
e 36 29
e 36 30
e 36 31
e 36 32
e 36 33
e 37 1
e 37 2
e 37 17
e 37 18
e 37 19
e 37 20
e 37 21
e 37 22
e 37 23
e 37 24
e 37 25
e 37 26
e 37 27
e 37 28
e 37 29
e 37 30
e 37 31
e 37 32
e 37 33
e 38 1
e 38 2
e 38 17
e 38 18
e 38 19
e 38 20
e 38 21
e 38 22
e 38 23
e 38 24
e 38 25
e 38 26
e 38 27
e 38 28
e 38 29
e 38 30
e 38 31
e 38 32
e 39 1
e 39 2
e 39 3
e 39 5
e 39 6
e 39 7
e 39 8
e 39 9
e 39 10
e 39 11
e 39 12
e 39 13
e 39 14
e 39 16
e 39 17
e 39 18
e 39 19
e 39 20
e 39 21
e 39 22
e 39 23
e 39 24
e 39 25
e 39 26
e 39 27
e 39 28
e 39 29
e 39 30
e 39 31
e 39 32
e 39 33
e 39 35
e 39 36
e 39 37
e 39 38
e 40 1
e 40 2
e 40 3
e 40 6
e 40 7
e 40 8
e 40 9
e 40 10
e 40 11
e 40 12
e 40 13
e 40 14
e 40 16
e 40 17
e 40 18
e 40 19
e 40 20
e 40 21
e 40 22
e 40 23
e 40 24
e 40 25
e 40 26
e 40 27
e 40 28
e 40 29
e 40 30
e 40 31
e 40 32
e 40 33
e 40 35
e 40 36
e 40 37
e 40 38
e 40 39
e 41 1
e 41 2
e 41 3
e 41 7
e 41 8
e 41 9
e 41 10
e 41 11
e 41 12
e 41 13
e 41 14
e 41 16
e 41 17
e 41 18
e 41 19
e 41 20
e 41 21
e 41 22
e 41 23
e 41 24
e 41 25
e 41 26
e 41 27
e 41 28
e 41 29
e 41 30
e 41 31
e 41 32
e 41 33
e 41 35
e 41 36
e 41 37
e 41 38
e 41 39
e 41 40
e 42 1
e 42 2
e 42 3
e 42 8
e 42 9
e 42 10
e 42 11
e 42 12
e 42 13
e 42 14
e 42 16
e 42 17
e 42 18
e 42 19
e 42 20
e 42 21
e 42 22
e 42 23
e 42 24
e 42 25
e 42 26
e 42 27
e 42 28
e 42 29
e 42 30
e 42 31
e 42 32
e 42 33
e 42 35
e 42 36
e 42 37
e 42 38
e 42 39
e 42 40
e 42 41
e 43 1
e 43 2
e 43 3
e 43 9
e 43 10
e 43 11
e 43 12
e 43 13
e 43 14
e 43 16
e 43 17
e 43 18
e 43 19
e 43 20
e 43 21
e 43 22
e 43 23
e 43 24
e 43 25
e 43 26
e 43 27
e 43 28
e 43 29
e 43 30
e 43 31
e 43 32
e 43 33
e 43 35
e 43 36
e 43 37
e 43 38
e 43 39
e 43 40
e 43 41
e 43 42
e 44 1
e 44 2
e 44 3
e 44 10
e 44 11
e 44 12
e 44 13
e 44 14
e 44 16
e 44 17
e 44 18
e 44 19
e 44 20
e 44 21
e 44 22
e 44 23
e 44 24
e 44 25
e 44 26
e 44 27
e 44 28
e 44 29
e 44 30
e 44 31
e 44 32
e 44 33
e 44 35
e 44 36
e 44 37
e 44 38
e 44 39
e 44 40
e 44 41
e 44 42
e 44 43
e 45 1
e 45 2
e 45 3
e 45 11
e 45 12
e 45 13
e 45 14
e 45 16
e 45 17
e 45 18
e 45 19
e 45 20
e 45 21
e 45 22
e 45 23
e 45 24
e 45 25
e 45 26
e 45 27
e 45 28
e 45 29
e 45 30
e 45 31
e 45 32
e 45 33
e 45 35
e 45 36
e 45 37
e 45 38
e 45 39
e 45 40
e 45 41
e 45 42
e 45 43
e 45 44
e 46 1
e 46 2
e 46 3
e 46 11
e 46 12
e 46 13
e 46 14
e 46 17
e 46 18
e 46 19
e 46 20
e 46 21
e 46 22
e 46 23
e 46 24
e 46 25
e 46 26
e 46 27
e 46 28
e 46 29
e 46 30
e 46 31
e 46 32
e 46 33
e 46 35
e 46 36
e 46 37
e 46 38
e 46 39
e 46 40
e 46 41
e 46 42
e 46 43
e 46 44
e 46 45
e 47 1
e 47 2
e 47 3
e 47 4
e 47 5
e 47 6
e 47 7
e 47 8
e 47 9
e 47 10
e 47 11
e 47 12
e 47 13
e 47 14
e 47 15
e 47 16
e 47 17
e 47 19
e 47 20
e 47 21
e 47 22
e 47 23
e 47 24
e 47 25
e 47 26
e 47 34
e 48 1
e 48 2
e 48 3
e 48 4
e 48 5
e 48 6
e 48 7
e 48 8
e 48 9
e 48 10
e 48 11
e 48 12
e 48 13
e 48 14
e 48 15
e 48 16
e 48 17
e 48 20
e 48 21
e 48 22
e 48 23
e 48 24
e 48 25
e 48 26
e 48 34
e 48 47
e 49 1
e 49 2
e 49 3
e 49 4
e 49 5
e 49 6
e 49 7
e 49 8
e 49 9
e 49 10
e 49 11
e 49 12
e 49 13
e 49 14
e 49 15
e 49 16
e 49 17
e 49 21
e 49 22
e 49 23
e 49 24
e 49 25
e 49 26
e 49 34
e 49 47
e 49 48
e 50 1
e 50 2
e 50 3
e 50 4
e 50 5
e 50 6
e 50 7
e 50 8
e 50 9
e 50 10
e 50 11
e 50 12
e 50 13
e 50 14
e 50 15
e 50 16
e 50 17
e 50 22
e 50 23
e 50 24
e 50 25
e 50 26
e 50 34
e 50 47
e 50 48
e 50 49
e 51 1
e 51 2
e 51 3
e 51 4
e 51 5
e 51 6
e 51 7
e 51 8
e 51 9
e 51 10
e 51 11
e 51 12
e 51 13
e 51 14
e 51 15
e 51 16
e 51 17
e 51 23
e 51 24
e 51 25
e 51 26
e 51 34
e 51 47
e 51 48
e 51 49
e 51 50
e 52 1
e 52 2
e 52 3
e 52 4
e 52 5
e 52 6
e 52 7
e 52 8
e 52 9
e 52 10
e 52 11
e 52 12
e 52 13
e 52 14
e 52 15
e 52 16
e 52 17
e 52 24
e 52 25
e 52 26
e 52 34
e 52 47
e 52 48
e 52 49
e 52 50
e 52 51
e 53 1
e 53 2
e 53 3
e 53 4
e 53 5
e 53 6
e 53 7
e 53 8
e 53 9
e 53 10
e 53 11
e 53 12
e 53 13
e 53 14
e 53 15
e 53 16
e 53 17
e 53 25
e 53 26
e 53 34
e 53 47
e 53 48
e 53 49
e 53 50
e 53 51
e 53 52
e 54 1
e 54 2
e 54 3
e 54 4
e 54 5
e 54 6
e 54 7
e 54 8
e 54 9
e 54 10
e 54 11
e 54 12
e 54 13
e 54 14
e 54 15
e 54 16
e 54 17
e 54 26
e 54 34
e 54 47
e 54 48
e 54 49
e 54 50
e 54 51
e 54 52
e 54 53
e 55 1
e 55 2
e 55 3
e 55 4
e 55 5
e 55 6
e 55 7
e 55 8
e 55 9
e 55 10
e 55 11
e 55 12
e 55 13
e 55 14
e 55 15
e 55 16
e 55 17
e 55 34
e 55 47
e 55 48
e 55 49
e 55 50
e 55 51
e 55 52
e 55 53
e 55 54
e 56 1
e 56 2
e 56 3
e 56 12
e 56 13
e 56 14
e 56 17
e 56 18
e 56 19
e 56 20
e 56 21
e 56 22
e 56 23
e 56 24
e 56 25
e 56 26
e 56 27
e 56 28
e 56 29
e 56 30
e 56 31
e 56 32
e 56 33
e 56 35
e 56 36
e 56 37
e 56 38
e 56 39
e 56 40
e 56 41
e 56 42
e 56 43
e 56 44
e 56 45
e 56 46
e 57 1
e 57 2
e 57 3
e 57 12
e 57 13
e 57 14
e 57 17
e 57 18
e 57 19
e 57 20
e 57 21
e 57 22
e 57 23
e 57 24
e 57 25
e 57 26
e 57 27
e 57 28
e 57 29
e 57 30
e 57 31
e 57 32
e 57 33
e 57 35
e 57 36
e 57 37
e 57 38
e 57 39
e 57 40
e 57 41
e 57 42
e 57 43
e 57 44
e 57 45
e 57 46
e 57 56
e 59 1
e 59 2
e 59 3
e 59 13
e 59 14
e 59 17
e 59 18
e 59 19
e 59 20
e 59 21
e 59 22
e 59 23
e 59 24
e 59 25
e 59 26
e 59 27
e 59 28
e 59 29
e 59 30
e 59 31
e 59 32
e 59 33
e 59 35
e 59 36
e 59 37
e 59 38
e 59 39
e 59 40
e 59 41
e 59 42
e 59 43
e 59 44
e 59 45
e 59 46
e 59 56
e 59 57
e 60 1
e 60 2
e 60 3
e 60 13
e 60 14
e 60 17
e 60 18
e 60 19
e 60 20
e 60 21
e 60 22
e 60 23
e 60 24
e 60 25
e 60 26
e 60 27
e 60 28
e 60 29
e 60 30
e 60 31
e 60 32
e 60 33
e 60 35
e 60 36
e 60 37
e 60 38
e 60 39
e 60 40
e 60 41
e 60 42
e 60 43
e 60 44
e 60 45
e 60 46
e 60 56
e 60 57
e 60 59
e 62 1
e 62 2
e 62 3
e 62 14
e 62 17
e 62 18
e 62 19
e 62 20
e 62 21
e 62 22
e 62 23
e 62 24
e 62 25
e 62 26
e 62 27
e 62 28
e 62 29
e 62 30
e 62 31
e 62 32
e 62 33
e 62 35
e 62 36
e 62 37
e 62 39
e 62 40
e 62 41
e 62 42
e 62 43
e 62 44
e 62 45
e 62 46
e 62 56
e 62 57
e 62 59
e 62 60
e 63 1
e 63 2
e 63 3
e 63 17
e 63 18
e 63 19
e 63 20
e 63 21
e 63 22
e 63 23
e 63 24
e 63 25
e 63 26
e 63 27
e 63 28
e 63 29
e 63 30
e 63 31
e 63 32
e 63 33
e 63 35
e 63 36
e 63 37
e 63 39
e 63 40
e 63 41
e 63 42
e 63 43
e 63 44
e 63 45
e 63 46
e 63 56
e 63 57
e 63 59
e 63 60
e 63 62
e 64 1
e 64 2
e 64 3
e 64 17
e 64 18
e 64 19
e 64 20
e 64 21
e 64 22
e 64 23
e 64 24
e 64 25
e 64 26
e 64 27
e 64 28
e 64 29
e 64 30
e 64 31
e 64 32
e 64 33
e 64 35
e 64 36
e 64 37
e 64 39
e 64 40
e 64 41
e 64 42
e 64 43
e 64 44
e 64 45
e 64 46
e 64 56
e 64 57
e 64 59
e 64 60
e 64 62
e 64 63
e 65 1
e 65 2
e 65 3
e 65 4
e 65 5
e 65 6
e 65 7
e 65 8
e 65 9
e 65 10
e 65 11
e 65 12
e 65 13
e 65 14
e 65 15
e 65 16
e 65 17
e 65 34
e 65 47
e 65 48
e 65 49
e 65 50
e 65 51
e 65 52
e 65 53
e 65 54
e 65 55
e 67 1
e 67 2
e 67 3
e 67 4
e 67 5
e 67 6
e 67 7
e 67 8
e 67 9
e 67 10
e 67 11
e 67 12
e 67 13
e 67 14
e 67 15
e 67 16
e 67 17
e 67 34
e 67 47
e 67 48
e 67 49
e 67 50
e 67 51
e 67 52
e 67 53
e 67 54
e 67 55
e 67 65
e 68 1
e 68 2
e 68 3
e 68 4
e 68 5
e 68 6
e 68 7
e 68 8
e 68 9
e 68 10
e 68 11
e 68 12
e 68 13
e 68 14
e 68 15
e 68 16
e 68 17
e 68 47
e 68 48
e 68 49
e 68 50
e 68 51
e 68 52
e 68 53
e 68 54
e 68 55
e 68 65
e 68 67
e 71 1
e 71 2
e 71 3
e 71 4
e 71 5
e 71 6
e 71 7
e 71 8
e 71 9
e 71 10
e 71 11
e 71 12
e 71 13
e 71 14
e 71 15
e 71 16
e 71 17
e 71 34
e 71 47
e 71 48
e 71 49
e 71 50
e 71 51
e 71 52
e 71 53
e 71 54
e 71 55
e 71 65
e 71 67
e 73 1
e 73 2
e 73 17
e 73 18
e 73 19
e 73 20
e 73 21
e 73 22
e 73 23
e 73 24
e 73 25
e 73 26
e 73 27
e 73 28
e 73 29
e 73 30
e 73 31
e 73 32
e 73 39
e 73 40
e 73 41
e 73 42
e 73 43
e 73 44
e 73 45
e 73 46
e 73 56
e 73 57
e 73 59
e 73 60
e 73 62
e 73 63
e 73 64
e 74 1
e 74 2
e 74 3
e 74 4
e 74 5
e 74 6
e 74 7
e 74 8
e 74 9
e 74 10
e 74 11
e 74 12
e 74 13
e 74 14
e 74 15
e 74 16
e 74 17
e 74 34
e 74 47
e 74 48
e 74 49
e 74 50
e 74 51
e 74 52
e 74 53
e 74 54
e 74 55
e 74 65
e 74 67
e 74 71
e 75 1
e 75 2
e 75 3
e 75 4
e 75 5
e 75 6
e 75 7
e 75 8
e 75 9
e 75 10
e 75 11
e 75 12
e 75 13
e 75 14
e 75 15
e 75 16
e 75 17
e 75 34
e 75 47
e 75 48
e 75 49
e 75 50
e 75 51
e 75 52
e 75 53
e 75 54
e 75 55
e 75 65
e 75 67
e 75 71
e 75 74
e 77 1
e 77 2
e 77 17
e 77 18
e 77 19
e 77 20
e 77 21
e 77 22
e 77 23
e 77 24
e 77 25
e 77 26
e 77 27
e 77 28
e 77 29
e 77 30
e 77 31
e 77 32
e 77 39
e 77 40
e 77 41
e 77 42
e 77 43
e 77 44
e 77 45
e 77 46
e 77 56
e 77 57
e 77 59
e 77 60
e 77 62
e 77 63
e 77 64
e 77 73
e 80 1
e 80 2
e 80 3
e 80 4
e 80 5
e 80 6
e 80 7
e 80 8
e 80 9
e 80 10
e 80 11
e 80 12
e 80 13
e 80 14
e 80 15
e 80 16
e 80 17
e 80 34
e 80 47
e 80 48
e 80 49
e 80 50
e 80 51
e 80 52
e 80 53
e 80 54
e 80 55
e 80 65
e 80 67
e 80 71
e 80 74
e 80 75
e 83 1
e 83 2
e 83 17
e 83 18
e 83 19
e 83 20
e 83 21
e 83 22
e 83 23
e 83 24
e 83 25
e 83 26
e 83 27
e 83 28
e 83 29
e 83 30
e 83 31
e 83 32
e 83 33
e 83 35
e 83 36
e 83 37
e 83 39
e 83 40
e 83 41
e 83 42
e 83 43
e 83 44
e 83 45
e 83 46
e 83 56
e 83 57
e 83 59
e 83 60
e 83 62
e 83 63
e 83 64
e 83 73
e 85 1
e 85 2
e 85 17
e 85 18
e 85 19
e 85 20
e 85 21
e 85 22
e 85 23
e 85 24
e 85 25
e 85 26
e 85 27
e 85 28
e 85 29
e 85 30
e 85 31
e 85 32
e 85 33
e 85 35
e 85 36
e 85 37
e 85 39
e 85 40
e 85 41
e 85 42
e 85 43
e 85 44
e 85 45
e 85 46
e 85 56
e 85 57
e 85 59
e 85 60
e 85 62
e 85 63
e 85 64
e 85 73
e 85 83
e 87 1
e 87 2
e 87 17
e 87 18
e 87 19
e 87 20
e 87 21
e 87 22
e 87 23
e 87 24
e 87 25
e 87 26
e 87 27
e 87 28
e 87 29
e 87 30
e 87 31
e 87 32
e 87 33
e 87 35
e 87 36
e 87 37
e 87 39
e 87 40
e 87 41
e 87 42
e 87 43
e 87 44
e 87 45
e 87 46
e 87 56
e 87 57
e 87 59
e 87 60
e 87 62
e 87 63
e 87 64
e 87 73
e 87 83
e 87 85
e 88 1
e 88 2
e 88 17
e 88 18
e 88 19
e 88 20
e 88 21
e 88 22
e 88 23
e 88 24
e 88 25
e 88 26
e 88 27
e 88 28
e 88 29
e 88 30
e 88 31
e 88 32
e 88 33
e 88 35
e 88 36
e 88 37
e 88 39
e 88 40
e 88 41
e 88 42
e 88 43
e 88 44
e 88 45
e 88 46
e 88 56
e 88 57
e 88 59
e 88 60
e 88 62
e 88 63
e 88 64
e 88 73
e 88 83
e 88 85
e 88 87
e 90 1
e 90 2
e 90 17
e 90 18
e 90 19
e 90 20
e 90 21
e 90 22
e 90 23
e 90 24
e 90 25
e 90 26
e 90 27
e 90 28
e 90 29
e 90 30
e 90 31
e 90 32
e 90 39
e 90 40
e 90 41
e 90 42
e 90 43
e 90 44
e 90 45
e 90 46
e 90 56
e 90 57
e 90 59
e 90 60
e 90 62
e 90 63
e 90 64
e 90 73
e 90 83
e 90 85
e 90 87
e 90 88
e 91 1
e 91 2
e 91 17
e 91 18
e 91 19
e 91 20
e 91 21
e 91 22
e 91 23
e 91 24
e 91 25
e 91 26
e 91 27
e 91 28
e 91 29
e 91 30
e 91 31
e 91 32
e 91 33
e 91 35
e 91 36
e 91 37
e 91 39
e 91 40
e 91 41
e 91 42
e 91 43
e 91 44
e 91 45
e 91 46
e 91 56
e 91 57
e 91 59
e 91 60
e 91 62
e 91 63
e 91 64
e 91 73
e 91 83
e 91 85
e 91 87
e 91 88
e 93 1
e 93 2
e 93 17
e 93 18
e 93 19
e 93 20
e 93 21
e 93 22
e 93 23
e 93 24
e 93 25
e 93 26
e 93 27
e 93 28
e 93 29
e 93 30
e 93 31
e 93 32
e 93 39
e 93 40
e 93 41
e 93 42
e 93 43
e 93 44
e 93 45
e 93 46
e 93 56
e 93 57
e 93 59
e 93 60
e 93 62
e 93 63
e 93 64
e 93 73
e 93 83
e 93 85
e 93 87
e 93 88
e 93 91
e 96 1
e 96 2
e 96 17
e 96 18
e 96 19
e 96 20
e 96 21
e 96 22
e 96 23
e 96 24
e 96 25
e 96 26
e 96 27
e 96 28
e 96 29
e 96 30
e 96 31
e 96 32
e 96 39
e 96 40
e 96 41
e 96 42
e 96 43
e 96 44
e 96 45
e 96 46
e 96 56
e 96 57
e 96 59
e 96 60
e 96 62
e 96 63
e 96 64
e 96 73
e 96 83
e 96 85
e 96 87
e 96 88
e 96 91
e 96 93
e 99 1
e 99 2
e 99 17
e 99 18
e 99 19
e 99 20
e 99 21
e 99 22
e 99 23
e 99 24
e 99 25
e 99 26
e 99 27
e 99 28
e 99 29
e 99 30
e 99 31
e 99 32
e 99 33
e 99 35
e 99 36
e 99 37
e 99 39
e 99 40
e 99 41
e 99 42
e 99 43
e 99 44
e 99 45
e 99 46
e 99 56
e 99 57
e 99 59
e 99 60
e 99 62
e 99 63
e 99 64
e 99 73
e 99 83
e 99 85
e 99 87
e 99 88
e 99 91
e 99 93
e 99 96
e 102 1
e 102 2
e 102 17
e 102 18
e 102 19
e 102 20
e 102 21
e 102 22
e 102 23
e 102 24
e 102 25
e 102 26
e 102 27
e 102 28
e 102 29
e 102 30
e 102 31
e 102 32
e 102 39
e 102 40
e 102 41
e 102 42
e 102 43
e 102 44
e 102 45
e 102 46
e 102 56
e 102 57
e 102 59
e 102 60
e 102 62
e 102 63
e 102 64
e 102 73
e 102 83
e 102 85
e 102 87
e 102 88
e 102 91
e 102 93
e 102 96
e 102 99
e 104 1
e 104 2
e 104 17
e 104 18
e 104 19
e 104 20
e 104 21
e 104 22
e 104 23
e 104 24
e 104 25
e 104 26
e 104 27
e 104 28
e 104 29
e 104 30
e 104 31
e 104 32
e 104 33
e 104 35
e 104 36
e 104 37
e 104 39
e 104 40
e 104 41
e 104 42
e 104 43
e 104 44
e 104 45
e 104 46
e 104 56
e 104 57
e 104 59
e 104 60
e 104 62
e 104 63
e 104 64
e 104 73
e 104 83
e 104 85
e 104 87
e 104 88
e 104 91
e 104 93
e 104 96
e 104 99
e 104 102
e 107 1
e 107 2
e 107 17
e 107 18
e 107 19
e 107 20
e 107 21
e 107 22
e 107 23
e 107 24
e 107 25
e 107 26
e 107 27
e 107 28
e 107 29
e 107 30
e 107 31
e 107 32
e 107 33
e 107 35
e 107 36
e 107 37
e 107 39
e 107 40
e 107 41
e 107 42
e 107 43
e 107 44
e 107 45
e 107 46
e 107 56
e 107 57
e 107 59
e 107 60
e 107 62
e 107 63
e 107 64
e 107 73
e 107 83
e 107 85
e 107 87
e 107 88
e 107 91
e 107 93
e 107 96
e 107 99
e 107 102
e 107 104
e 108 1
e 108 2
e 108 17
e 108 18
e 108 19
e 108 20
e 108 21
e 108 22
e 108 23
e 108 24
e 108 25
e 108 26
e 108 27
e 108 28
e 108 29
e 108 30
e 108 31
e 108 32
e 108 39
e 108 40
e 108 41
e 108 42
e 108 43
e 108 44
e 108 45
e 108 46
e 108 56
e 108 57
e 108 59
e 108 60
e 108 62
e 108 63
e 108 64
e 108 73
e 108 83
e 108 85
e 108 87
e 108 88
e 108 91
e 108 93
e 108 96
e 108 99
e 108 104
e 108 107
e 109 1
e 109 2
e 109 17
e 109 18
e 109 19
e 109 20
e 109 21
e 109 22
e 109 23
e 109 24
e 109 25
e 109 26
e 109 27
e 109 28
e 109 29
e 109 30
e 109 31
e 109 32
e 109 39
e 109 40
e 109 41
e 109 42
e 109 43
e 109 44
e 109 45
e 109 46
e 109 56
e 109 57
e 109 59
e 109 60
e 109 62
e 109 63
e 109 64
e 109 73
e 109 83
e 109 85
e 109 87
e 109 88
e 109 91
e 109 96
e 109 99
e 109 104
e 109 107
e 109 108
e 111 1
e 111 2
e 111 17
e 111 18
e 111 19
e 111 20
e 111 21
e 111 22
e 111 23
e 111 24
e 111 25
e 111 26
e 111 27
e 111 28
e 111 29
e 111 30
e 111 31
e 111 32
e 111 33
e 111 35
e 111 36
e 111 37
e 111 39
e 111 40
e 111 41
e 111 42
e 111 43
e 111 44
e 111 45
e 111 46
e 111 56
e 111 57
e 111 59
e 111 60
e 111 62
e 111 63
e 111 64
e 111 73
e 111 83
e 111 85
e 111 87
e 111 88
e 111 91
e 111 96
e 111 99
e 111 104
e 111 107
e 111 108
e 111 109
e 112 1
e 112 2
e 112 17
e 112 18
e 112 19
e 112 20
e 112 21
e 112 22
e 112 23
e 112 24
e 112 25
e 112 26
e 112 27
e 112 28
e 112 29
e 112 30
e 112 31
e 112 32
e 112 33
e 112 35
e 112 36
e 112 37
e 112 39
e 112 40
e 112 41
e 112 42
e 112 43
e 112 44
e 112 45
e 112 46
e 112 56
e 112 57
e 112 59
e 112 60
e 112 62
e 112 63
e 112 64
e 112 73
e 112 83
e 112 85
e 112 87
e 112 88
e 112 91
e 112 99
e 112 104
e 112 107
e 112 108
e 112 109
e 112 111
e 114 1
e 114 2
e 114 17
e 114 18
e 114 19
e 114 20
e 114 21
e 114 22
e 114 23
e 114 24
e 114 25
e 114 26
e 114 27
e 114 28
e 114 29
e 114 30
e 114 31
e 114 32
e 114 33
e 114 35
e 114 36
e 114 37
e 114 39
e 114 40
e 114 41
e 114 42
e 114 43
e 114 44
e 114 45
e 114 46
e 114 56
e 114 57
e 114 59
e 114 60
e 114 62
e 114 63
e 114 64
e 114 73
e 114 83
e 114 85
e 114 87
e 114 88
e 114 91
e 114 99
e 114 104
e 114 107
e 114 108
e 114 109
e 114 111
e 114 112
e 117 1
e 117 2
e 117 17
e 117 18
e 117 19
e 117 20
e 117 21
e 117 22
e 117 23
e 117 24
e 117 25
e 117 26
e 117 27
e 117 28
e 117 29
e 117 30
e 117 31
e 117 32
e 117 33
e 117 35
e 117 36
e 117 37
e 117 39
e 117 40
e 117 41
e 117 42
e 117 43
e 117 44
e 117 45
e 117 46
e 117 56
e 117 57
e 117 59
e 117 60
e 117 62
e 117 63
e 117 64
e 117 73
e 117 83
e 117 85
e 117 87
e 117 88
e 117 91
e 117 99
e 117 104
e 117 107
e 117 109
e 117 111
e 117 112
e 117 114
e 118 1
e 118 2
e 118 17
e 118 18
e 118 19
e 118 20
e 118 21
e 118 22
e 118 23
e 118 24
e 118 25
e 118 26
e 118 27
e 118 28
e 118 29
e 118 30
e 118 31
e 118 32
e 118 33
e 118 35
e 118 36
e 118 37
e 118 39
e 118 40
e 118 41
e 118 42
e 118 43
e 118 44
e 118 45
e 118 46
e 118 56
e 118 57
e 118 59
e 118 60
e 118 62
e 118 63
e 118 64
e 118 73
e 118 83
e 118 85
e 118 87
e 118 88
e 118 91
e 118 99
e 118 104
e 118 107
e 118 109
e 118 111
e 118 112
e 118 114
e 118 117
e 120 1
e 120 2
e 120 17
e 120 18
e 120 19
e 120 20
e 120 21
e 120 22
e 120 23
e 120 24
e 120 25
e 120 26
e 120 27
e 120 28
e 120 29
e 120 30
e 120 31
e 120 32
e 120 33
e 120 35
e 120 36
e 120 37
e 120 39
e 120 40
e 120 41
e 120 42
e 120 43
e 120 44
e 120 45
e 120 46
e 120 56
e 120 57
e 120 59
e 120 60
e 120 62
e 120 63
e 120 64
e 120 73
e 120 83
e 120 85
e 120 87
e 120 88
e 120 91
e 120 99
e 120 104
e 120 107
e 120 111
e 120 112
e 120 114
e 120 117
e 120 118
e 121 1
e 121 2
e 121 3
e 121 4
e 121 5
e 121 6
e 121 7
e 121 8
e 121 9
e 121 10
e 121 11
e 121 12
e 121 13
e 121 14
e 121 15
e 121 16
e 121 17
e 121 47
e 121 48
e 121 49
e 121 50
e 121 51
e 121 52
e 121 53
e 121 54
e 121 55
e 121 65
e 121 67
e 121 71
e 121 74
e 121 75
e 121 80
e 125 1
e 125 2
e 125 3
e 125 4
e 125 5
e 125 6
e 125 7
e 125 8
e 125 9
e 125 10
e 125 11
e 125 12
e 125 13
e 125 14
e 125 15
e 125 16
e 125 17
e 125 47
e 125 48
e 125 49
e 125 50
e 125 51
e 125 52
e 125 53
e 125 54
e 125 55
e 125 65
e 125 67
e 125 71
e 125 74
e 125 75
e 125 80
e 126 1
e 126 2
e 126 3
e 126 4
e 126 5
e 126 6
e 126 7
e 126 8
e 126 9
e 126 10
e 126 11
e 126 12
e 126 13
e 126 14
e 126 15
e 126 16
e 126 17
e 126 47
e 126 48
e 126 49
e 126 50
e 126 51
e 126 52
e 126 53
e 126 54
e 126 55
e 126 65
e 126 67
e 126 71
e 126 74
e 126 75
e 126 80
e 127 1
e 127 2
e 127 3
e 127 4
e 127 5
e 127 6
e 127 7
e 127 8
e 127 9
e 127 10
e 127 11
e 127 12
e 127 13
e 127 14
e 127 15
e 127 16
e 127 17
e 127 47
e 127 48
e 127 49
e 127 50
e 127 51
e 127 52
e 127 53
e 127 54
e 127 55
e 127 65
e 127 67
e 127 71
e 127 74
e 127 75
e 127 80
e 128 1
e 128 2
e 128 3
e 128 4
e 128 5
e 128 6
e 128 7
e 128 8
e 128 9
e 128 10
e 128 11
e 128 12
e 128 13
e 128 14
e 128 15
e 128 16
e 128 17
e 128 47
e 128 48
e 128 49
e 128 50
e 128 51
e 128 52
e 128 53
e 128 54
e 128 55
e 128 65
e 128 67
e 128 71
e 128 74
e 128 75
e 128 80
e 129 1
e 129 2
e 129 3
e 129 4
e 129 5
e 129 6
e 129 7
e 129 8
e 129 9
e 129 10
e 129 11
e 129 12
e 129 13
e 129 14
e 129 15
e 129 16
e 129 17
e 129 47
e 129 48
e 129 49
e 129 50
e 129 51
e 129 52
e 129 53
e 129 54
e 129 55
e 129 65
e 129 67
e 129 71
e 129 74
e 129 75
e 129 80
e 130 1
e 130 2
e 130 3
e 130 4
e 130 5
e 130 6
e 130 7
e 130 8
e 130 9
e 130 10
e 130 11
e 130 12
e 130 13
e 130 14
e 130 15
e 130 16
e 130 17
e 130 47
e 130 48
e 130 49
e 130 50
e 130 51
e 130 52
e 130 53
e 130 54
e 130 55
e 130 65
e 130 67
e 130 71
e 130 74
e 130 75
e 130 80
e 131 1
e 131 2
e 131 3
e 131 4
e 131 5
e 131 6
e 131 7
e 131 8
e 131 9
e 131 10
e 131 11
e 131 12
e 131 13
e 131 14
e 131 15
e 131 16
e 131 17
e 131 34
e 131 47
e 131 48
e 131 49
e 131 50
e 131 51
e 131 52
e 131 53
e 131 54
e 131 55
e 131 65
e 131 67
e 131 71
e 131 74
e 131 75
e 131 80
e 135 1
e 135 2
e 135 3
e 135 4
e 135 5
e 135 6
e 135 7
e 135 8
e 135 9
e 135 10
e 135 11
e 135 12
e 135 13
e 135 14
e 135 15
e 135 16
e 135 17
e 135 34
e 135 47
e 135 48
e 135 49
e 135 50
e 135 51
e 135 52
e 135 53
e 135 54
e 135 55
e 135 65
e 135 67
e 135 71
e 135 74
e 135 75
e 135 80
e 136 1
e 136 2
e 136 3
e 136 4
e 136 5
e 136 6
e 136 7
e 136 8
e 136 9
e 136 10
e 136 11
e 136 12
e 136 13
e 136 14
e 136 15
e 136 16
e 136 17
e 136 47
e 136 48
e 136 49
e 136 50
e 136 51
e 136 52
e 136 53
e 136 54
e 136 55
e 136 65
e 136 67
e 136 71
e 136 74
e 136 75
e 136 80
e 137 1
e 137 2
e 137 3
e 137 4
e 137 5
e 137 6
e 137 7
e 137 8
e 137 9
e 137 10
e 137 11
e 137 12
e 137 13
e 137 14
e 137 15
e 137 16
e 137 17
e 137 47
e 137 48
e 137 49
e 137 50
e 137 51
e 137 52
e 137 53
e 137 54
e 137 55
e 137 65
e 137 67
e 137 71
e 137 74
e 137 75
e 137 80
e 138 1
e 138 2
e 138 3
e 138 4
e 138 5
e 138 6
e 138 7
e 138 8
e 138 9
e 138 10
e 138 11
e 138 12
e 138 13
e 138 14
e 138 15
e 138 16
e 138 17
e 138 47
e 138 48
e 138 49
e 138 50
e 138 51
e 138 52
e 138 53
e 138 54
e 138 55
e 138 65
e 138 67
e 138 71
e 138 74
e 138 75
e 138 80
e 138 137
e 139 1
e 139 2
e 139 3
e 139 4
e 139 5
e 139 6
e 139 7
e 139 8
e 139 9
e 139 10
e 139 11
e 139 12
e 139 13
e 139 14
e 139 15
e 139 16
e 139 17
e 139 47
e 139 48
e 139 49
e 139 50
e 139 51
e 139 52
e 139 53
e 139 54
e 139 55
e 139 65
e 139 67
e 139 71
e 139 74
e 139 75
e 139 80
e 142 1
e 142 2
e 142 17
e 142 18
e 142 19
e 142 20
e 142 21
e 142 22
e 142 23
e 142 24
e 142 25
e 142 26
e 142 27
e 142 28
e 142 29
e 142 30
e 142 31
e 142 32
e 142 33
e 142 39
e 142 40
e 142 41
e 142 42
e 142 43
e 142 44
e 142 45
e 142 46
e 142 56
e 142 57
e 142 59
e 142 60
e 142 62
e 142 63
e 142 64
e 142 83
e 142 85
e 142 87
e 142 88
e 142 91
e 142 99
e 142 104
e 142 107
e 142 111
e 142 112
e 142 114
e 142 117
e 142 118
e 142 120
e 144 1
e 144 2
e 144 17
e 144 18
e 144 19
e 144 20
e 144 21
e 144 22
e 144 23
e 144 24
e 144 25
e 144 26
e 144 27
e 144 28
e 144 29
e 144 30
e 144 31
e 144 32
e 144 33
e 144 35
e 144 39
e 144 40
e 144 41
e 144 42
e 144 43
e 144 44
e 144 45
e 144 46
e 144 56
e 144 57
e 144 59
e 144 60
e 144 62
e 144 63
e 144 64
e 144 83
e 144 85
e 144 87
e 144 88
e 144 91
e 144 99
e 144 104
e 144 107
e 144 111
e 144 112
e 144 114
e 144 117
e 144 118
e 144 120
e 145 1
e 145 2
e 145 3
e 145 4
e 145 5
e 145 6
e 145 7
e 145 8
e 145 9
e 145 10
e 145 11
e 145 12
e 145 13
e 145 14
e 145 15
e 145 16
e 145 17
e 145 47
e 145 48
e 145 49
e 145 50
e 145 51
e 145 52
e 145 53
e 145 54
e 145 55
e 145 65
e 145 67
e 145 71
e 145 74
e 145 75
e 145 80
e 146 1
e 146 2
e 146 17
e 146 18
e 146 19
e 146 20
e 146 21
e 146 22
e 146 23
e 146 24
e 146 25
e 146 26
e 146 27
e 146 28
e 146 29
e 146 30
e 146 31
e 146 32
e 146 33
e 146 35
e 146 39
e 146 40
e 146 41
e 146 42
e 146 43
e 146 44
e 146 45
e 146 46
e 146 56
e 146 57
e 146 59
e 146 60
e 146 62
e 146 63
e 146 64
e 146 83
e 146 85
e 146 87
e 146 88
e 146 91
e 146 99
e 146 104
e 146 107
e 146 111
e 146 112
e 146 114
e 146 117
e 146 118
e 146 120
e 146 144
e 147 1
e 147 2
e 147 3
e 147 4
e 147 5
e 147 6
e 147 7
e 147 8
e 147 9
e 147 10
e 147 11
e 147 12
e 147 13
e 147 14
e 147 15
e 147 16
e 147 17
e 147 47
e 147 48
e 147 49
e 147 50
e 147 51
e 147 52
e 147 53
e 147 54
e 147 55
e 147 65
e 147 67
e 147 71
e 147 74
e 147 75
e 147 80
e 147 145
e 148 1
e 148 2
e 148 17
e 148 18
e 148 19
e 148 20
e 148 21
e 148 22
e 148 23
e 148 24
e 148 25
e 148 26
e 148 27
e 148 28
e 148 29
e 148 30
e 148 31
e 148 32
e 148 33
e 148 35
e 148 39
e 148 40
e 148 41
e 148 42
e 148 43
e 148 44
e 148 45
e 148 46
e 148 56
e 148 57
e 148 59
e 148 60
e 148 62
e 148 63
e 148 64
e 148 83
e 148 85
e 148 87
e 148 88
e 148 91
e 148 99
e 148 104
e 148 107
e 148 111
e 148 112
e 148 114
e 148 117
e 148 118
e 148 120
e 148 144
e 149 1
e 149 2
e 149 3
e 149 4
e 149 5
e 149 6
e 149 7
e 149 8
e 149 9
e 149 10
e 149 11
e 149 12
e 149 13
e 149 14
e 149 15
e 149 16
e 149 17
e 149 47
e 149 48
e 149 49
e 149 50
e 149 51
e 149 52
e 149 53
e 149 54
e 149 55
e 149 65
e 149 67
e 149 71
e 149 74
e 149 75
e 149 80
e 149 145
e 149 147
e 150 1
e 150 2
e 150 3
e 150 4
e 150 5
e 150 6
e 150 7
e 150 8
e 150 9
e 150 10
e 150 11
e 150 12
e 150 13
e 150 14
e 150 15
e 150 16
e 150 17
e 150 47
e 150 48
e 150 49
e 150 50
e 150 51
e 150 52
e 150 53
e 150 54
e 150 55
e 150 65
e 150 67
e 150 71
e 150 74
e 150 75
e 150 80
e 150 145
e 151 1
e 151 2
e 151 3
e 151 4
e 151 5
e 151 6
e 151 7
e 151 8
e 151 9
e 151 10
e 151 11
e 151 12
e 151 13
e 151 14
e 151 15
e 151 16
e 151 17
e 151 47
e 151 48
e 151 49
e 151 50
e 151 51
e 151 52
e 151 53
e 151 54
e 151 55
e 151 65
e 151 67
e 151 71
e 151 74
e 151 75
e 151 80
e 152 1
e 152 2
e 152 17
e 152 18
e 152 19
e 152 20
e 152 21
e 152 22
e 152 23
e 152 24
e 152 25
e 152 26
e 152 27
e 152 28
e 152 29
e 152 30
e 152 31
e 152 32
e 152 33
e 152 35
e 152 39
e 152 40
e 152 41
e 152 42
e 152 43
e 152 44
e 152 45
e 152 46
e 152 56
e 152 57
e 152 59
e 152 60
e 152 62
e 152 63
e 152 64
e 152 83
e 152 85
e 152 87
e 152 88
e 152 91
e 152 99
e 152 104
e 152 107
e 152 111
e 152 112
e 152 114
e 152 117
e 152 118
e 152 120
e 152 144
e 153 1
e 153 2
e 153 3
e 153 4
e 153 5
e 153 6
e 153 7
e 153 8
e 153 9
e 153 10
e 153 11
e 153 12
e 153 13
e 153 14
e 153 15
e 153 16
e 153 17
e 153 47
e 153 48
e 153 49
e 153 50
e 153 51
e 153 52
e 153 53
e 153 54
e 153 55
e 153 65
e 153 67
e 153 71
e 153 74
e 153 75
e 153 80
e 153 151
e 154 1
e 154 2
e 154 3
e 154 4
e 154 5
e 154 6
e 154 7
e 154 8
e 154 9
e 154 10
e 154 11
e 154 12
e 154 13
e 154 14
e 154 15
e 154 16
e 154 17
e 154 47
e 154 48
e 154 49
e 154 50
e 154 51
e 154 52
e 154 53
e 154 54
e 154 55
e 154 65
e 154 67
e 154 71
e 154 74
e 154 75
e 154 80
e 157 1
e 157 2
e 157 17
e 157 18
e 157 19
e 157 20
e 157 21
e 157 22
e 157 23
e 157 24
e 157 25
e 157 26
e 157 27
e 157 28
e 157 29
e 157 30
e 157 31
e 157 32
e 157 33
e 157 35
e 157 39
e 157 40
e 157 41
e 157 42
e 157 43
e 157 44
e 157 45
e 157 46
e 157 56
e 157 57
e 157 59
e 157 60
e 157 62
e 157 63
e 157 64
e 157 83
e 157 85
e 157 87
e 157 88
e 157 91
e 157 99
e 157 104
e 157 107
e 157 111
e 157 112
e 157 114
e 157 117
e 157 118
e 157 120
e 160 1
e 160 2
e 160 3
e 160 4
e 160 5
e 160 6
e 160 7
e 160 8
e 160 9
e 160 10
e 160 11
e 160 12
e 160 13
e 160 14
e 160 15
e 160 16
e 160 17
e 160 47
e 160 48
e 160 49
e 160 50
e 160 51
e 160 52
e 160 53
e 160 54
e 160 55
e 160 65
e 160 67
e 160 71
e 160 74
e 160 75
e 160 80
e 161 1
e 161 2
e 161 3
e 161 4
e 161 5
e 161 6
e 161 7
e 161 8
e 161 9
e 161 10
e 161 11
e 161 12
e 161 13
e 161 14
e 161 15
e 161 16
e 161 17
e 161 47
e 161 48
e 161 49
e 161 50
e 161 51
e 161 52
e 161 53
e 161 54
e 161 55
e 161 65
e 161 67
e 161 71
e 161 74
e 161 75
e 161 80
e 161 160
e 162 1
e 162 2
e 162 3
e 162 4
e 162 5
e 162 6
e 162 7
e 162 8
e 162 9
e 162 10
e 162 11
e 162 12
e 162 13
e 162 14
e 162 15
e 162 16
e 162 17
e 162 47
e 162 48
e 162 49
e 162 50
e 162 51
e 162 52
e 162 53
e 162 54
e 162 55
e 162 65
e 162 67
e 162 71
e 162 74
e 162 75
e 162 80
e 162 160
e 162 161
e 163 1
e 163 2
e 163 3
e 163 4
e 163 5
e 163 6
e 163 7
e 163 8
e 163 9
e 163 10
e 163 11
e 163 12
e 163 13
e 163 14
e 163 15
e 163 16
e 163 17
e 163 47
e 163 48
e 163 49
e 163 50
e 163 51
e 163 52
e 163 53
e 163 54
e 163 55
e 163 65
e 163 67
e 163 71
e 163 74
e 163 75
e 163 80
e 163 160
e 164 1
e 164 2
e 164 3
e 164 4
e 164 5
e 164 6
e 164 7
e 164 8
e 164 9
e 164 10
e 164 11
e 164 12
e 164 13
e 164 14
e 164 15
e 164 16
e 164 17
e 164 47
e 164 48
e 164 49
e 164 50
e 164 51
e 164 52
e 164 53
e 164 54
e 164 55
e 164 65
e 164 67
e 164 71
e 164 74
e 164 75
e 164 80
e 165 1
e 165 2
e 165 3
e 165 4
e 165 5
e 165 6
e 165 7
e 165 8
e 165 9
e 165 10
e 165 11
e 165 12
e 165 13
e 165 14
e 165 15
e 165 16
e 165 17
e 165 47
e 165 48
e 165 49
e 165 50
e 165 51
e 165 52
e 165 53
e 165 54
e 165 55
e 165 65
e 165 67
e 165 71
e 165 74
e 165 75
e 165 80
e 165 164
e 166 1
e 166 2
e 166 3
e 166 4
e 166 5
e 166 6
e 166 7
e 166 8
e 166 9
e 166 10
e 166 11
e 166 12
e 166 13
e 166 14
e 166 15
e 166 16
e 166 17
e 166 47
e 166 48
e 166 49
e 166 50
e 166 51
e 166 52
e 166 53
e 166 54
e 166 55
e 166 65
e 166 67
e 166 71
e 166 74
e 166 75
e 166 80
e 169 1
e 169 2
e 169 17
e 169 18
e 169 19
e 169 20
e 169 21
e 169 22
e 169 23
e 169 24
e 169 25
e 169 26
e 169 27
e 169 28
e 169 29
e 169 30
e 169 31
e 169 32
e 169 33
e 169 37
e 169 39
e 169 40
e 169 41
e 169 42
e 169 43
e 169 44
e 169 45
e 169 46
e 169 56
e 169 57
e 169 59
e 169 60
e 169 62
e 169 63
e 169 64
e 169 83
e 169 85
e 169 87
e 169 88
e 169 91
e 169 99
e 169 104
e 169 107
e 169 111
e 169 112
e 169 114
e 169 117
e 169 118
e 169 120
e 173 1
e 173 2
e 173 3
e 173 4
e 173 5
e 173 6
e 173 7
e 173 8
e 173 9
e 173 10
e 173 11
e 173 12
e 173 13
e 173 14
e 173 15
e 173 16
e 173 17
e 173 47
e 173 48
e 173 49
e 173 50
e 173 51
e 173 52
e 173 53
e 173 54
e 173 55
e 173 65
e 173 67
e 173 71
e 173 74
e 173 75
e 173 80
e 173 131
e 174 1
e 174 2
e 174 3
e 174 4
e 174 5
e 174 6
e 174 7
e 174 8
e 174 9
e 174 10
e 174 11
e 174 12
e 174 13
e 174 14
e 174 15
e 174 16
e 174 17
e 174 47
e 174 48
e 174 49
e 174 50
e 174 51
e 174 52
e 174 53
e 174 54
e 174 55
e 174 65
e 174 67
e 174 71
e 174 74
e 174 75
e 174 80
e 174 131
e 176 1
e 176 2
e 176 3
e 176 4
e 176 5
e 176 6
e 176 7
e 176 8
e 176 9
e 176 10
e 176 11
e 176 12
e 176 13
e 176 14
e 176 15
e 176 16
e 176 17
e 176 47
e 176 48
e 176 49
e 176 50
e 176 51
e 176 52
e 176 53
e 176 54
e 176 55
e 176 65
e 176 67
e 176 71
e 176 74
e 176 75
e 176 80
e 176 131
e 177 1
e 177 2
e 177 3
e 177 4
e 177 5
e 177 6
e 177 7
e 177 8
e 177 9
e 177 10
e 177 11
e 177 12
e 177 13
e 177 14
e 177 15
e 177 16
e 177 17
e 177 47
e 177 48
e 177 49
e 177 50
e 177 51
e 177 52
e 177 53
e 177 54
e 177 55
e 177 65
e 177 67
e 177 71
e 177 74
e 177 75
e 177 80
e 177 131
e 178 1
e 178 2
e 178 3
e 178 4
e 178 5
e 178 6
e 178 7
e 178 8
e 178 9
e 178 10
e 178 11
e 178 12
e 178 13
e 178 14
e 178 15
e 178 16
e 178 17
e 178 47
e 178 48
e 178 49
e 178 50
e 178 51
e 178 52
e 178 53
e 178 54
e 178 55
e 178 65
e 178 67
e 178 71
e 178 74
e 178 75
e 178 80
e 178 131
e 181 1
e 181 2
e 181 17
e 181 18
e 181 19
e 181 20
e 181 21
e 181 22
e 181 23
e 181 24
e 181 25
e 181 26
e 181 27
e 181 28
e 181 29
e 181 30
e 181 31
e 181 32
e 181 33
e 181 36
e 181 39
e 181 40
e 181 41
e 181 42
e 181 43
e 181 44
e 181 45
e 181 46
e 181 56
e 181 57
e 181 59
e 181 60
e 181 62
e 181 63
e 181 64
e 181 83
e 181 85
e 181 87
e 181 88
e 181 91
e 181 99
e 181 104
e 181 107
e 181 111
e 181 112
e 181 114
e 181 117
e 181 118
e 181 120
e 184 1
e 184 2
e 184 17
e 184 18
e 184 19
e 184 20
e 184 21
e 184 22
e 184 23
e 184 24
e 184 25
e 184 26
e 184 27
e 184 28
e 184 29
e 184 30
e 184 31
e 184 32
e 184 39
e 184 40
e 184 41
e 184 42
e 184 43
e 184 44
e 184 45
e 184 46
e 184 56
e 184 57
e 184 59
e 184 60
e 184 62
e 187 1
e 187 2
e 187 17
e 187 18
e 187 19
e 187 20
e 187 21
e 187 22
e 187 23
e 187 24
e 187 25
e 187 26
e 187 27
e 187 28
e 187 29
e 187 30
e 187 31
e 187 32
e 187 38
e 187 39
e 187 40
e 187 41
e 187 42
e 187 43
e 187 44
e 187 45
e 187 46
e 187 56
e 187 57
e 187 59
e 187 60
e 187 62
e 187 184
e 189 1
e 189 2
e 189 17
e 189 18
e 189 19
e 189 20
e 189 21
e 189 22
e 189 23
e 189 24
e 189 25
e 189 26
e 189 27
e 189 28
e 189 29
e 189 30
e 189 31
e 189 32
e 189 38
e 189 39
e 189 40
e 189 41
e 189 42
e 189 43
e 189 44
e 189 45
e 189 46
e 189 56
e 189 57
e 189 59
e 189 60
e 189 184
e 189 187
e 191 1
e 191 2
e 191 3
e 191 4
e 191 5
e 191 6
e 191 7
e 191 8
e 191 9
e 191 10
e 191 11
e 191 12
e 191 13
e 191 14
e 191 15
e 191 16
e 191 17
e 191 47
e 191 48
e 191 49
e 191 50
e 191 51
e 191 52
e 191 53
e 191 54
e 191 55
e 192 1
e 192 2
e 192 3
e 192 4
e 192 5
e 192 6
e 192 7
e 192 8
e 192 9
e 192 10
e 192 11
e 192 12
e 192 13
e 192 14
e 192 15
e 192 16
e 192 17
e 192 47
e 192 48
e 192 49
e 192 50
e 192 51
e 192 52
e 192 53
e 192 54
e 192 55
e 195 1
e 195 2
e 195 17
e 195 18
e 195 19
e 195 20
e 195 21
e 195 22
e 195 23
e 195 24
e 195 25
e 195 26
e 195 27
e 195 28
e 195 29
e 195 30
e 195 31
e 195 32
e 195 38
e 195 39
e 195 40
e 195 41
e 195 42
e 195 43
e 195 44
e 195 45
e 195 46
e 195 56
e 195 57
e 195 59
e 195 60
e 195 187
e 195 189
e 197 1
e 197 2
e 197 17
e 197 18
e 197 19
e 197 20
e 197 21
e 197 22
e 197 23
e 197 24
e 197 25
e 197 26
e 197 27
e 197 28
e 197 29
e 197 30
e 197 31
e 197 32
e 197 39
e 197 40
e 197 41
e 197 42
e 197 43
e 197 44
e 197 45
e 197 46
e 197 56
e 197 57
e 197 59
e 197 60
e 197 62
